100
100
100
100
99
99
99
97
96
95
95
93
93
93
91
89
89
89
88
87
87
86
85
85
84
83
81
80
80
79
79
78
78
78
77
75
75
73
73
73
72
71
71
70
70
69
66
65
65
63
60
60
59
59
58
58
57
57
55
55
55
55
54
54
53
53
52
51
50
50
49
49
49
48
45
45
45
45
44
44
43
43
41
41
40
40
40
36
36
35
34
34
33
33
33
33
33
32
32
32
32
30
